NAME : pairopt.-191261.tour
COMMENT : Length = -191261
COMMENT : Found by LKH-3 [Keld Helsgaun] Thu Apr 13 22:40:33 2023
TYPE : TOUR
DIMENSION : 37
TOUR_SECTION
1
3
27
30
11
24
17
19
36
10
7
6
5
4
9
25
18
26
29
32
33
12
37
2
16
21
8
34
35
28
31
14
13
22
15
20
23
-1
EOF
